\* Problem: Unknown *\

Maximize
 obj: + xp_0_0 + xp_0_1 + xp_0_2 + xp_0_3 + xp_0_4 + xp_1_0 + xp_1_1
 + xp_1_2 + xp_2_0 + xp_2_1 + xp_2_2 + xp_2_3 + xp_3_0 + xp_3_1 + xp_4_0
 + xp_5_0 + xp_5_1 + xp_6_0 + xp_6_1 + xp_6_2 + xp_7_0 + xp_8_0 + xp_8_1
 + xp_9_0 + xp_10_0 + xp_10_1 + xp_11_0 + xp_11_1 + xp_11_2 + xp_11_3
 + xp_12_0 + xp_13_0 + xp_13_1 + xp_14_0 + xp_14_1 + xp_15_0 + xp_16_0
 + xp_17_0 + xp_17_1 + xp_17_2 + xp_17_3 + xp_17_4 + xp_18_0 + xp_18_1
 + xp_18_2 + xp_18_3 + xp_19_0 + xp_19_1 + xp_19_2 + xp_19_3 + xp_20_0
 + xp_20_1 + xp_20_2 + xp_21_0 + xp_21_1 + xp_21_2 + xp_21_3 + xp_21_4
 + xp_22_0 + xp_22_1 + xp_22_2 + xp_23_0 + xp_23_1

Subject To
 r_1: 0 xp_0_0 <= 26.3893805309735
 r_2: + xp_18_3 + xp_5_1 + xp_2_2 <= 26.3893805309735
 r_3: + xp_21_3 + xp_18_2 + xp_6_2 <= 27.1553784860558
 r_4: + xp_17_1 + xp_15_0 <= 27.6367006487488
 r_5: + xp_18_0 <= 26.0136785539814
 r_6: + xp_18_1 <= 26.7924528301887
 r_7: + xp_20_2 <= 26.3893805309735
 r_8: + xp_22_2 + xp_11_2 + xp_3_1 + xp_2_3 <= 26.3893805309735
 r_9: + xp_17_2 + xp_11_1 + xp_6_1 <= 27.1553784860558
 r_10: + xp_3_0 <= 27.6367006487488
 r_11: + xp_18_1 + xp_11_3 <= 26.0136785539814
 r_12: + xp_11_0 <= 26.7924528301887
 r_13: 0 xp_0_0 <= 28.3056478405316
 r_14: + xp_21_1 + xp_14_0 + xp_0_2 <= 26.3893805309735
 r_15: + xp_21_0 + xp_19_1 <= 27.1553784860558
 r_16: + xp_22_1 + xp_0_4 + xp_0_3 + xp_0_1 <= 28.3056478405316
 r_17: + xp_0_0 <= 26.0136785539814
 r_18: + xp_21_3 + xp_4_0 <= 26.3893805309735
 r_19: + xp_19_0 <= 26.3893805309735
 r_20: + xp_21_4 + xp_21_2 + xp_19_3 + xp_19_2 + xp_14_1
 <= 28.3056478405316
 r_21: + xp_20_1 <= 26.3893805309735
 r_22: + xp_21_4 + xp_21_1 <= 27.1553784860558
 r_23: + xp_22_2 + xp_17_3 <= 28.3056478405316
 r_24: + xp_3_1 <= 27.6367006487488
 r_25: 0 xp_0_0 <= 28.3056478405316
 r_26: + xp_18_3 + xp_0_2 <= 26.0136785539814
 r_27: + xp_11_2 <= 26.3893805309735
 r_28: + xp_19_2 + xp_10_1 <= 26.3893805309735
 r_29: 0 xp_0_0 <= 27.1553784860558
 r_30: + xp_2_0 <= 27.1553784860558
 r_31: + xp_18_2 + xp_17_2 + xp_6_2 + xp_6_1 <= 27.6367006487488
 r_32: + xp_2_1 <= 28.3056478405316
 r_33: + xp_11_1 + xp_2_2 <= 27.1553784860558
 r_34: + xp_19_1 + xp_2_3 <= 27.1553784860558
 r_35: 0 xp_0_0 <= 28.3056478405316
 r_36: + xp_9_0 <= 28.3056478405316
 r_37: + xp_13_1 + xp_8_1 <= 27.6367006487488
 r_38: + xp_1_1 + xp_0_4 <= 28.3056478405316
 r_39: + xp_17_3 + xp_0_3 <= 27.6367006487488
 r_40: + xp_0_1 <= 26.0136785539814
 r_41: + xp_12_0 <= 27.6367006487488
 r_42: 0 xp_0_0 <= 27.6367006487488
 r_43: + xp_16_0 <= 27.6367006487488
 r_44: + xp_23_1 + xp_1_2 <= 27.6367006487488
 r_45: + xp_17_2 + xp_3_1 <= 27.6367006487488
 r_46: + xp_18_2 <= 26.0136785539814
 r_47: + xp_13_1 <= 28.3056478405316
 r_48: + xp_13_0 <= 27.6367006487488
 r_49: + xp_17_4 <= 27.6367006487488
 r_50: + xp_0_4 <= 26.0136785539814
 r_51: + xp_8_1 + xp_1_1 <= 27.6367006487488
 r_52: + xp_8_0 + xp_1_2 <= 27.6367006487488
 r_53: + xp_1_0 <= 27.6367006487488
 r_54: + xp_0_3 <= 26.0136785539814
 r_55: 0 xp_0_0 <= 27.6367006487488
 r_56: 0 xp_0_0 <= 27.6367006487488
 r_57: + xp_22_1 <= 26.0136785539814
 r_58: + xp_17_3 + xp_5_0 <= 26.0136785539814
 r_59: + xp_22_0 <= 26.0136785539814
 r_60: + xp_23_1 + xp_6_0 <= 26.0136785539814
 r_61: + xp_23_0 + xp_17_4 <= 26.0136785539814
 r_62: + xp_17_0 <= 26.0136785539814
 r_63: + xp_17_1 + xp_11_3 + xp_6_2 + xp_5_1 <= 26.0136785539814
 r_64: + xp_22_2 + xp_17_2 + xp_6_1 <= 26.0136785539814
 r_65: + xp_21_4 + xp_20_1 + xp_19_2 + xp_14_1 + xp_10_1 + xp_2_1
 <= 28.3056478405316
 r_66: + xp_21_2 + xp_7_0 <= 28.3056478405316
 r_67: + xp_20_2 + xp_19_3 + xp_10_0 <= 28.3056478405316
 r_68: + xp_20_0 <= 28.3056478405316

Bounds
 0 <= xp_0_0 <= 29.5394126166573
 0 <= xp_0_1 <= 11.8157650466629
 0 <= xp_0_2 <= 5.90788252333146
 0 <= xp_0_3 <= 5.90788252333146
 0 <= xp_0_4 <= 5.90788252333146
 0 <= xp_1_0 <= 24.4245599341389
 0 <= xp_1_1 <= 7.49394220495764
 0 <= xp_1_2 <= 1.58605968162618
 0 <= xp_2_0 <= 24.3310588313834
 0 <= xp_2_1 <= 1.39905747611517
 0 <= xp_2_2 <= 5.90788252333146
 0 <= xp_2_3 <= 1.39905747611517
 0 <= xp_3_0 <= 23.6315300933258
 0 <= xp_3_1 <= 5.90788252333146
 0 <= xp_4_0 <= 24.9336274014681
 0 <= xp_5_0 <= 19.9469019211745
 0 <= xp_5_1 <= 4.98672548029362
 0 <= xp_6_0 <= 13.4641587967928
 0 <= xp_6_1 <= 4.48805293226426
 0 <= xp_6_2 <= 4.48805293226426
 0 <= xp_7_0 <= 21.5052536337662
 0 <= xp_8_0 <= 15.4588489889102
 0 <= xp_8_1 <= 3.86471224722755
 0 <= xp_9_0 <= 17.9210446948052
 0 <= xp_10_0 <= 14.3368357558441
 0 <= xp_10_1 <= 3.58420893896104
 0 <= xp_11_0 <= 28.5974834586674
 0 <= xp_11_1 <= 11.8157650466629
 0 <= xp_11_2 <= 10.873835888673
 0 <= xp_11_3 <= 5.43691794433652
 0 <= xp_12_0 <= 16.830198495991
 0 <= xp_13_0 <= 13.0901543857707
 0 <= xp_13_1 <= 3.27253859644269
 0 <= xp_14_0 <= 12.466813700734
 0 <= xp_14_1 <= 3.11670342518351
 0 <= xp_15_0 <= 15.4276819546584
 0 <= xp_16_0 <= 14.8043412696217
 0 <= xp_17_0 <= 26.3880830920045
 0 <= xp_17_1 <= 2.7565529986787
 0 <= xp_17_2 <= 2.7565529986787
 0 <= xp_17_3 <= 5.90788252333146
 0 <= xp_17_4 <= 5.5131059973574
 0 <= xp_18_0 <= 22.4887447453077
 0 <= xp_18_1 <= 10.6729796986448
 0 <= xp_18_2 <= 2.38254858765668
 0 <= xp_18_3 <= 5.90788252333146
 0 <= xp_19_0 <= 28.2096250631282
 0 <= xp_19_1 <= 4.57809496980235
 0 <= xp_19_2 <= 2.28904748490118
 0 <= xp_19_3 <= 5.90788252333146
 0 <= xp_20_0 <= 27.8979547206098
 0 <= xp_20_1 <= 10.1743071506155
 0 <= xp_20_2 <= 2.133212313642
 0 <= xp_21_0 <= 25.4219050301976
 0 <= xp_21_1 <= 7.69825746020327
 0 <= xp_21_2 <= 1.79037493687181
 0 <= xp_21_3 <= 1.79037493687181
 0 <= xp_21_4 <= 1.79037493687181
 0 <= xp_22_0 <= 26.5889392820328
 0 <= xp_22_1 <= 2.95740918870692
 0 <= xp_22_2 <= 7.38658711768492
 0 <= xp_23_0 <= 22.1597613530548
 0 <= xp_23_1 <= 14.7731742353698

End
